Test: hole013_shuffled.cnf
Options: -no-inverting-opt
WARNING: for repeatability, setting FPU to use double precision
============================[ Problem Statistics ]=============================
|                                                                             |
|  Number of symmetries:           25                                         |
|  Number of invertingSyms:         0                                         |
|  Number of variables:           182                                         |
|  Number of clauses:            1197                                         |
|  Parse time:                   0.00 s                                       |
|                                                                             |
============================[ Search Statistics ]==============================
| Conflicts |          ORIGINAL         |          LEARNT          | Progress |
|           |    Vars  Clauses Literals |    Limit  Clauses Lit/Cl |          |
===============================================================================
|       100 |     182     1197     2548 |      438      119     70 |  0.003 % |
|       250 |     182     1197     2548 |      482      338     62 |  0.003 % |
|       475 |     182     1197     2548 |      531      405     54 |  0.003 % |
|       812 |     182     1197     2548 |      584      303     53 |  0.003 % |
|      1318 |     182     1197     2548 |      642      341     55 |  0.003 % |
|      2077 |     182     1197     2548 |      706      415     62 |  0.003 % |
|      3216 |     182     1197     2548 |      777      487     61 |  0.003 % |
|      4924 |     182     1197     2548 |      855      661     66 |  0.003 % |
|      7486 |     182     1197     2548 |      940      785     66 |  0.003 % |
|     11330 |     182     1197     2548 |     1034      642     57 |  0.003 % |
|     17096 |     182     1197     2548 |     1138     1080     61 |  0.003 % |
|     25745 |     182     1197     2548 |     1252      854     58 |  0.003 % |
|     38719 |     182     1197     2548 |     1377      918     37 |  0.003 % |
===============================================================================
restarts              : 127
conflicts             : 42089          (40159 /sec)
symconflicts          : 4461           (4256 /sec)
decisions             : 67184          (0.00 % random) (64103 /sec)
propagations          : 847681         (808806 /sec)
sympropagations       : 27412          (26155 /sec)
conflict literals     : 2608315        (4.87 % deleted)
literals     : 2608315        (4.87 % deleted)

HEURISTIC USAGES
random                : 0           
activity w/ lookahead : 0           
activity no lookahead : 0           
original sp           : 67184       
sym count             : 0           

Memory used           : 6.00 MB
CPU time              : 1.04807 s

UNSATISFIABLE
